benchmarks/fibcall/fibcall.out
sim-profile: SimpleScalar/PISA Tool Set version 3.0 of August, 2003.
Copyright (c) 1994-2003 by Todd M. Austin, Ph.D. and SimpleScalar, LLC.
All Rights Reserved. This version of SimpleScalar is licensed for academic
non-commercial use.  No portion of this work may be used by any commercial
entity, or for any commercial purpose, without the prior written permission
of SimpleScalar, LLC (info@simplescalar.com).

sim: command line: /home/sudiptac/sudiptac/Work/simplesim-3.0/sim-profile -pcstat sim_num_insn fibcall 

sim: simulation started @ Mon Mar 30 19:57:57 2009, options follow:

sim-profile: This simulator implements a functional simulator with
profiling support.  Run with the `-h' flag to see profiling options
available.

# -config                     # load configuration from a file
# -dumpconfig                 # dump configuration to a file
# -h                    false # print help message    
# -v                    false # verbose operation     
# -d                    false # enable debug message  
# -i                    false # start in Dlite debugger
-seed                       1 # random number generator seed (0 for timer seed)
# -q                    false # initialize and terminate immediately
# -chkpt               <null> # restore EIO trace execution from <fname>
# -redir:sim           <null> # redirect simulator output to file (non-interactive only)
# -redir:prog          <null> # redirect simulated program output to file
-nice                       0 # simulator scheduling priority
-max:inst                   0 # maximum number of inst's to execute
-all                    false # enable all profile options
-iclass                 false # enable instruction class profiling
-iprof                  false # enable instruction profiling
-brprof                 false # enable branch instruction profiling
-amprof                 false # enable address mode profiling
-segprof                false # enable load/store address segment profiling
-tsymprof               false # enable text symbol profiling
-taddrprof              false # enable text address profiling
-dsymprof               false # enable data symbol profiling
-internal               false # include compiler-internal symbols during symbol profiling
# -pcstat        sim_num_insn # profile stat(s) against text addr's (mult uses ok)

sim: ** starting functional simulation **

sim: ** simulation statistics **
sim_num_insn                   6182 # total number of instructions executed
sim_num_refs                   3593 # total number of loads and stores executed
sim_elapsed_time                  1 # total simulation time in seconds
sim_inst_rate             6182.0000 # simulation speed (in insts/sec)

sim_num_insn_by_pc     # total number of instructions executed (by text address)
sim_num_insn_by_pc.count = 797
sim_num_insn_by_pc.total = 6181
sim_num_insn_by_pc.imin = 0x400140
sim_num_insn_by_pc.imax = 0x405660
sim_num_insn_by_pc.average =   7.7553
sim_num_insn_by_pc.std_dev =  47.3816
sim_num_insn_by_pc.overflows = 0
# pdf == prob dist fn, cdf == cumulative dist fn
#          index      count    pdf 
sim_num_insn_by_pc.start_dist
0x400140 1 0.02
0x400148 1 0.02
0x400150 1 0.02
0x400158 1 0.02
0x400160 1 0.02
0x400168 1 0.02
0x400170 1 0.02
0x400178 1 0.02
0x400180 1 0.02
0x400188 1 0.02
0x400190 1 0.02
0x400198 1 0.02
0x4001a0 1 0.02
0x4001a8 1 0.02
0x4001b0 1 0.02
0x4001b8 1 0.02
0x4001c0 1 0.02
0x4001c8 1 0.02
0x4001d0 1 0.02
0x4001d8 1 0.02
0x4001e0 1 0.02
0x4001f0 1 0.02
0x4001f8 1 0.02
0x400200 1 0.02
0x400208 29 0.47
0x400210 29 0.47
0x400218 29 0.47
0x400220 29 0.47
0x400228 29 0.47
0x400230 29 0.47
0x400238 29 0.47
0x400240 29 0.47
0x400248 1 0.02
0x400250 1 0.02
0x400258 1 0.02
0x400260 1 0.02
0x400268 1 0.02
0x400270 1 0.02
0x400278 1 0.02
0x400280 1 0.02
0x400288 1 0.02
0x400290 1 0.02
0x4002a0 1 0.02
0x4002a8 1 0.02
0x4002b0 1 0.02
0x4002b8 1 0.02
0x4002c0 1 0.02
0x4002c8 1 0.02
0x4002d0 1 0.02
0x4002d8 1 0.02
0x4002e0 1 0.02
0x4002e8 1 0.02
0x4002f0 1 0.02
0x4002f8 1 0.02
0x400300 1 0.02
0x400308 1 0.02
0x400310 1 0.02
0x400318 1 0.02
0x400320 1 0.02
0x400328 1 0.02
0x400330 1 0.02
0x400338 1 0.02
0x400340 1 0.02
0x400348 1 0.02
0x400350 1 0.02
0x400400 1 0.02
0x400408 1 0.02
0x400410 1 0.02
0x400418 1 0.02
0x400420 1 0.02
0x400470 1 0.02
0x400478 1 0.02
0x400480 1 0.02
0x400488 1 0.02
0x400490 1 0.02
0x400498 1 0.02
0x4004a0 1 0.02
0x4004a8 1 0.02
0x4004b0 1 0.02
0x4004b8 1 0.02
0x4004c0 1 0.02
0x4004c8 1 0.02
0x4004d8 1 0.02
0x4004e0 1 0.02
0x4004e8 1 0.02
0x4004f0 1 0.02
0x4004f8 1 0.02
0x400710 1 0.02
0x400718 1 0.02
0x400720 1 0.02
0x400728 1 0.02
0x400730 1 0.02
0x400738 1 0.02
0x400740 1 0.02
0x400760 1 0.02
0x400780 1 0.02
0x400788 1 0.02
0x400790 1 0.02
0x400798 1 0.02
0x4007a0 1 0.02
0x4007a8 1 0.02
0x4007c8 1 0.02
0x4007d0 1 0.02
0x4007d8 1 0.02
0x4007e0 1 0.02
0x400800 1 0.02
0x400808 1 0.02
0x400810 1 0.02
0x400818 1 0.02
0x400820 1 0.02
0x400828 1 0.02
0x400830 1 0.02
0x400838 1 0.02
0x400840 1 0.02
0x400848 1 0.02
0x400850 1 0.02
0x400858 1 0.02
0x400860 1 0.02
0x400868 1 0.02
0x400870 1 0.02
0x400878 1 0.02
0x400880 1 0.02
0x400888 1 0.02
0x400890 1 0.02
0x400898 1 0.02
0x4008a0 1 0.02
0x4008a8 1 0.02
0x4008b0 1 0.02
0x4008b8 1 0.02
0x4008c8 1 0.02
0x4008d0 1 0.02
0x4008d8 1 0.02
0x4008e0 1 0.02
0x4008e8 1 0.02
0x4008f0 1 0.02
0x4008f8 1 0.02
0x400900 1 0.02
0x400908 1 0.02
0x400910 1 0.02
0x400918 1 0.02
0x400920 1 0.02
0x400928 1 0.02
0x400930 1 0.02
0x400938 1 0.02
0x400940 1 0.02
0x400948 1 0.02
0x400950 1 0.02
0x400958 1 0.02
0x400960 1 0.02
0x400968 1 0.02
0x400970 1 0.02
0x400978 1 0.02
0x400980 1 0.02
0x400988 1 0.02
0x400998 1 0.02
0x4009a0 1 0.02
0x4009a8 1 0.02
0x4009b0 1 0.02
0x4009b8 1 0.02
0x4009c0 1 0.02
0x4009c8 1 0.02
0x4009d0 1 0.02
0x4009d8 1 0.02
0x4009e0 1 0.02
0x4009e8 1 0.02
0x4009f0 1 0.02
0x4009f8 1 0.02
0x400a00 1 0.02
0x400a08 1 0.02
0x400a10 1 0.02
0x400a18 1 0.02
0x400a48 1 0.02
0x400a50 1 0.02
0x400a60 1 0.02
0x400a68 1 0.02
0x400a80 1 0.02
0x400a88 1 0.02
0x400a90 1 0.02
0x400a98 1 0.02
0x400aa8 1 0.02
0x400ab0 1 0.02
0x400ab8 1 0.02
0x400ac0 1 0.02
0x400ac8 1 0.02
0x400d50 1 0.02
0x400d58 1 0.02
0x400d60 1 0.02
0x400d68 1 0.02
0x400d78 1 0.02
0x400d80 1 0.02
0x400d88 1 0.02
0x400d90 1 0.02
0x400d98 1 0.02
0x400da0 1 0.02
0x400da8 1 0.02
0x400db0 1 0.02
0x400db8 1 0.02
0x400dc0 1 0.02
0x400dc8 1 0.02
0x400dd0 1 0.02
0x400dd8 1 0.02
0x400de0 1 0.02
0x400de8 1 0.02
0x400df0 1 0.02
0x400df8 1 0.02
0x400e00 1 0.02
0x400e08 1 0.02
0x400e10 1 0.02
0x400e18 1 0.02
0x400e20 1 0.02
0x400e38 1 0.02
0x400e40 1 0.02
0x400e48 1 0.02
0x400e50 1 0.02
0x400e58 1 0.02
0x400e60 1 0.02
0x400e70 1 0.02
0x400e78 1 0.02
0x401210 1 0.02
0x401218 1 0.02
0x401220 1 0.02
0x401228 1 0.02
0x401230 1 0.02
0x401238 1 0.02
0x401240 1 0.02
0x401248 1 0.02
0x401250 1 0.02
0x401258 1 0.02
0x401260 1 0.02
0x401268 1 0.02
0x401270 1 0.02
0x401278 1 0.02
0x401280 1 0.02
0x401288 1 0.02
0x401290 1 0.02
0x401298 1 0.02
0x4012a0 1 0.02
0x4012a8 1 0.02
0x4012b0 1 0.02
0x4012b8 1 0.02
0x4012c0 1 0.02
0x4012c8 1 0.02
0x4012d0 1 0.02
0x4012d8 1 0.02
0x4013c0 1 0.02
0x4013c8 1 0.02
0x4013d0 1 0.02
0x4013d8 1 0.02
0x4013e0 1 0.02
0x4013e8 1 0.02
0x4013f0 1 0.02
0x401400 1 0.02
0x401408 1 0.02
0x401410 1 0.02
0x401418 1 0.02
0x401420 1 0.02
0x401428 1 0.02
0x401430 1 0.02
0x401438 1 0.02
0x401440 1 0.02
0x401448 1 0.02
0x401450 1 0.02
0x401458 1 0.02
0x401460 1 0.02
0x401468 1 0.02
0x401470 1 0.02
0x401478 1 0.02
0x401480 1 0.02
0x401718 1 0.02
0x401720 1 0.02
0x401728 1 0.02
0x401730 1 0.02
0x401738 1 0.02
0x401740 1 0.02
0x401748 1 0.02
0x401750 1 0.02
0x401760 4 0.06
0x401768 4 0.06
0x401770 4 0.06
0x401778 4 0.06
0x401780 4 0.06
0x401788 4 0.06
0x401790 4 0.06
0x401798 1 0.02
0x4017a0 1 0.02
0x4017a8 1 0.02
0x4017b0 1 0.02
0x4017b8 1 0.02
0x4017c0 1 0.02
0x4017c8 3 0.05
0x4017d0 3 0.05
0x4017e8 3 0.05
0x4017f0 3 0.05
0x4017f8 3 0.05
0x401800 3 0.05
0x401808 3 0.05
0x401810 3 0.05
0x401818 1 0.02
0x401820 1 0.02
0x401828 3 0.05
0x401830 3 0.05
0x401838 3 0.05
0x401840 3 0.05
0x401858 3 0.05
0x401860 3 0.05
0x401868 3 0.05
0x401870 3 0.05
0x401898 3 0.05
0x4018a0 3 0.05
0x4018a8 3 0.05
0x4018b0 2 0.03
0x4018b8 2 0.03
0x4018c0 2 0.03
0x4018c8 2 0.03
0x4018d0 2 0.03
0x4018e8 3 0.05
0x4018f0 3 0.05
0x4018f8 1 0.02
0x401900 1 0.02
0x401908 1 0.02
0x401910 1 0.02
0x401918 3 0.05
0x401920 3 0.05
0x401928 2 0.03
0x401930 2 0.03
0x401938 2 0.03
0x401940 2 0.03
0x401948 1 0.02
0x401950 1 0.02
0x401958 1 0.02
0x401960 1 0.02
0x401968 1 0.02
0x401988 1 0.02
0x401990 3 0.05
0x401998 3 0.05
0x4019a0 3 0.05
0x4019a8 4 0.06
0x4019b0 4 0.06
0x4019b8 4 0.06
0x4019c0 4 0.06
0x4019c8 4 0.06
0x4019d0 4 0.06
0x401a00 1 0.02
0x401a08 1 0.02
0x401a10 1 0.02
0x401a18 1 0.02
0x401a50 1 0.02
0x401a58 1 0.02
0x401a60 1 0.02
0x401a68 1 0.02
0x401a70 1 0.02
0x401a78 1 0.02
0x401a80 2 0.03
0x401a88 2 0.03
0x401a90 2 0.03
0x401a98 2 0.03
0x401aa0 2 0.03
0x401aa8 2 0.03
0x401ab0 2 0.03
0x401ab8 2 0.03
0x401ac0 1 0.02
0x401ac8 1 0.02
0x401ad0 1 0.02
0x401ad8 1 0.02
0x401ae0 1 0.02
0x401ae8 1 0.02
0x401af0 1 0.02
0x401af8 1 0.02
0x401b00 1 0.02
0x401b08 1 0.02
0x401b10 1 0.02
0x401b18 1 0.02
0x401b20 1 0.02
0x401b28 1 0.02
0x401b30 1 0.02
0x401b38 1 0.02
0x401b40 1 0.02
0x401b48 1 0.02
0x401b50 1 0.02
0x401b58 1 0.02
0x401b60 1 0.02
0x401b68 1 0.02
0x401b70 1 0.02
0x401b88 1 0.02
0x401b90 1 0.02
0x401b98 1 0.02
0x401ba0 3 0.05
0x401ba8 3 0.05
0x401bb0 3 0.05
0x401bb8 3 0.05
0x401bc0 3 0.05
0x401bc8 3 0.05
0x401bd0 3 0.05
0x401bd8 3 0.05
0x401be0 3 0.05
0x401be8 3 0.05
0x401bf0 4 0.06
0x401bf8 4 0.06
0x401c00 4 0.06
0x401c08 4 0.06
0x401c10 4 0.06
0x401c18 4 0.06
0x401c20 4 0.06
0x401c28 4 0.06
0x401c30 4 0.06
0x401c38 4 0.06
0x401c68 4 0.06
0x401c70 4 0.06
0x401c78 4 0.06
0x401c80 390 6.31
0x401c88 390 6.31
0x401c90 390 6.31
0x401c98 390 6.31
0x401ca0 390 6.31
0x401ca8 390 6.31
0x401cb0 390 6.31
0x401cb8 390 6.31
0x401cc0 390 6.31
0x401cc8 390 6.31
0x401cd0 390 6.31
0x401cd8 390 6.31
0x401ce0 4 0.06
0x401ce8 4 0.06
0x401cf0 4 0.06
0x401cf8 12 0.19
0x401d00 12 0.19
0x401d08 12 0.19
0x401d10 12 0.19
0x401d18 4 0.06
0x401d20 4 0.06
0x401d48 4 0.06
0x401d50 4 0.06
0x401f20 1 0.02
0x401f28 1 0.02
0x401f30 1 0.02
0x401f38 1 0.02
0x401f40 1 0.02
0x401f48 1 0.02
0x401f50 1 0.02
0x401f58 1 0.02
0x401f60 1 0.02
0x401f68 1 0.02
0x401f78 1 0.02
0x401f80 1 0.02
0x401f88 1 0.02
0x401f90 1 0.02
0x401f98 1 0.02
0x401fa0 1 0.02
0x401fa8 1 0.02
0x401fb0 1 0.02
0x401fb8 1 0.02
0x401fc0 1 0.02
0x401fc8 1 0.02
0x401fd0 1 0.02
0x401fd8 1 0.02
0x401fe0 1 0.02
0x401fe8 1 0.02
0x401ff0 1 0.02
0x401ff8 1 0.02
0x402000 1 0.02
0x402008 1 0.02
0x402010 1 0.02
0x402018 1 0.02
0x402020 1 0.02
0x402028 1 0.02
0x402030 1 0.02
0x402038 1 0.02
0x402088 1 0.02
0x402090 1 0.02
0x402098 1 0.02
0x4020a0 1 0.02
0x4020a8 1 0.02
0x4020b0 1 0.02
0x4020b8 1 0.02
0x4020d0 1 0.02
0x4020d8 1 0.02
0x4020e0 1 0.02
0x4020e8 1 0.02
0x4020f0 1 0.02
0x4020f8 1 0.02
0x402100 1 0.02
0x402108 1 0.02
0x402110 1 0.02
0x402118 1 0.02
0x402120 1 0.02
0x402128 1 0.02
0x402130 1 0.02
0x402180 1 0.02
0x402188 1 0.02
0x402190 1 0.02
0x402198 1 0.02
0x4021a0 1 0.02
0x4021a8 1 0.02
0x4021b0 1 0.02
0x4021b8 1 0.02
0x4021c0 1 0.02
0x4021c8 1 0.02
0x4021d0 1 0.02
0x4021d8 1 0.02
0x4021e0 1 0.02
0x4021e8 1 0.02
0x4021f0 1 0.02
0x4021f8 1 0.02
0x402200 1 0.02
0x402208 1 0.02
0x402210 1 0.02
0x402218 1 0.02
0x402220 1 0.02
0x402228 1 0.02
0x402230 1 0.02
0x402238 1 0.02
0x402240 1 0.02
0x402248 1 0.02
0x402250 1 0.02
0x402258 1 0.02
0x402310 1 0.02
0x402318 1 0.02
0x402320 1 0.02
0x402328 1 0.02
0x402330 1 0.02
0x402480 1 0.02
0x402488 1 0.02
0x402798 1 0.02
0x4027a0 1 0.02
0x4027a8 1 0.02
0x4027b0 1 0.02
0x4027b8 1 0.02
0x4027c0 1 0.02
0x4027c8 1 0.02
0x4027d0 1 0.02
0x4027d8 1 0.02
0x4027e0 1 0.02
0x4027e8 1 0.02
0x4027f0 1 0.02
0x402818 1 0.02
0x402820 1 0.02
0x402850 1 0.02
0x402858 1 0.02
0x402860 1 0.02
0x402868 1 0.02
0x402c98 2 0.03
0x402ca0 2 0.03
0x402ca8 2 0.03
0x402cb0 2 0.03
0x402cb8 2 0.03
0x402cc0 2 0.03
0x402cc8 2 0.03
0x402cd0 2 0.03
0x402cd8 2 0.03
0x402ce0 2 0.03
0x402ce8 2 0.03
0x402cf0 2 0.03
0x402cf8 2 0.03
0x402d00 2 0.03
0x402d08 2 0.03
0x402d10 2 0.03
0x402d18 2 0.03
0x402d20 2 0.03
0x402d28 2 0.03
0x402d30 2 0.03
0x402d38 2 0.03
0x402d40 2 0.03
0x402d48 2 0.03
0x402d50 2 0.03
0x402d58 2 0.03
0x402d60 2 0.03
0x402d68 2 0.03
0x402d70 2 0.03
0x402f28 2 0.03
0x402f30 2 0.03
0x402f38 1 0.02
0x402f40 1 0.02
0x402f48 1 0.02
0x402f50 1 0.02
0x402f58 1 0.02
0x402f60 1 0.02
0x402f68 1 0.02
0x402fd0 2 0.03
0x402fd8 2 0.03
0x402fe0 2 0.03
0x402fe8 2 0.03
0x403020 2 0.03
0x403028 2 0.03
0x403030 2 0.03
0x403038 2 0.03
0x403040 2 0.03
0x403048 2 0.03
0x403050 2 0.03
0x403058 2 0.03
0x403060 2 0.03
0x403068 2 0.03
0x403070 2 0.03
0x403370 2 0.03
0x403378 2 0.03
0x403380 2 0.03
0x403388 2 0.03
0x403390 2 0.03
0x403398 2 0.03
0x4033a0 2 0.03
0x4033a8 2 0.03
0x4033b0 2 0.03
0x4033c8 2 0.03
0x4033d0 2 0.03
0x4033d8 2 0.03
0x4033e0 2 0.03
0x4033e8 2 0.03
0x4033f0 2 0.03
0x4033f8 2 0.03
0x403400 2 0.03
0x403408 2 0.03
0x403410 2 0.03
0x403418 2 0.03
0x4038b0 2 0.03
0x4038b8 2 0.03
0x4038c0 2 0.03
0x4038c8 2 0.03
0x4038d0 2 0.03
0x4038d8 2 0.03
0x4038e0 2 0.03
0x4038e8 2 0.03
0x4038f0 2 0.03
0x4038f8 2 0.03
0x403900 2 0.03
0x403908 2 0.03
0x403910 2 0.03
0x403918 2 0.03
0x403920 2 0.03
0x403938 2 0.03
0x403940 2 0.03
0x403948 2 0.03
0x403950 2 0.03
0x403958 2 0.03
0x403960 2 0.03
0x403968 2 0.03
0x403990 2 0.03
0x403998 2 0.03
0x4039a0 2 0.03
0x4039a8 2 0.03
0x4039b0 2 0.03
0x4039e8 2 0.03
0x4039f0 2 0.03
0x4039f8 2 0.03
0x403a00 2 0.03
0x403a08 2 0.03
0x403a10 2 0.03
0x403a18 2 0.03
0x403a20 2 0.03
0x403a28 2 0.03
0x403a30 2 0.03
0x403a38 2 0.03
0x403a40 2 0.03
0x403a48 2 0.03
0x403a50 2 0.03
0x403a58 2 0.03
0x403a60 2 0.03
0x403a68 2 0.03
0x403a70 2 0.03
0x403a78 2 0.03
0x403a80 2 0.03
0x403a88 2 0.03
0x403a90 2 0.03
0x403a98 2 0.03
0x403aa0 2 0.03
0x403aa8 2 0.03
0x403ab0 2 0.03
0x403ab8 2 0.03
0x403ac0 2 0.03
0x403ac8 2 0.03
0x403ad0 2 0.03
0x403ad8 1 0.02
0x403ae0 1 0.02
0x403af8 1 0.02
0x403b00 1 0.02
0x403b08 1 0.02
0x403b10 1 0.02
0x403b18 1 0.02
0x403b20 1 0.02
0x403b28 1 0.02
0x403b60 1 0.02
0x403b68 1 0.02
0x403b70 1 0.02
0x403b98 2 0.03
0x403ba0 2 0.03
0x403ba8 2 0.03
0x403bb0 2 0.03
0x403bb8 2 0.03
0x403bc0 2 0.03
0x403bc8 2 0.03
0x403bd0 2 0.03
0x403bd8 2 0.03
0x403c08 2 0.03
0x403cd0 2 0.03
0x403cd8 2 0.03
0x403ce0 2 0.03
0x403d08 2 0.03
0x403d10 2 0.03
0x403d20 2 0.03
0x403d28 2 0.03
0x403d30 2 0.03
0x403d38 2 0.03
0x403d40 2 0.03
0x403d48 2 0.03
0x403d78 2 0.03
0x403d80 2 0.03
0x403d88 2 0.03
0x403d90 2 0.03
0x403da8 2 0.03
0x403db0 2 0.03
0x403db8 2 0.03
0x403dc0 2 0.03
0x403dc8 2 0.03
0x403dd0 2 0.03
0x403dd8 2 0.03
0x403de0 2 0.03
0x404378 3 0.05
0x404380 3 0.05
0x404388 3 0.05
0x404390 3 0.05
0x404398 3 0.05
0x4043a0 3 0.05
0x4043a8 3 0.05
0x4043b0 3 0.05
0x4043b8 3 0.05
0x4043c0 3 0.05
0x4043c8 3 0.05
0x4043d0 3 0.05
0x4043d8 3 0.05
0x4043e0 3 0.05
0x4043e8 3 0.05
0x404590 2 0.03
0x404598 2 0.03
0x4045a0 2 0.03
0x4045a8 2 0.03
0x4045b0 2 0.03
0x4045b8 2 0.03
0x404a30 3 0.05
0x404a38 3 0.05
0x404a40 3 0.05
0x404a48 3 0.05
0x404a60 3 0.05
0x404a68 3 0.05
0x404a70 3 0.05
0x404a78 3 0.05
0x404a80 3 0.05
0x404a88 3 0.05
0x404a90 3 0.05
0x404a98 3 0.05
0x404aa0 3 0.05
0x404aa8 3 0.05
0x404ab0 3 0.05
0x405310 2 0.03
0x405318 2 0.03
0x405320 2 0.03
0x405328 2 0.03
0x405330 2 0.03
0x405338 2 0.03
0x405340 2 0.03
0x405348 2 0.03
0x405350 2 0.03
0x405358 2 0.03
0x405360 2 0.03
0x405368 1 0.02
0x405370 1 0.02
0x405378 1 0.02
0x405380 1 0.02
0x405388 1 0.02
0x405390 1 0.02
0x405398 1 0.02
0x4053a0 1 0.02
0x4053c8 1 0.02
0x4053d0 1 0.02
0x405410 1 0.02
0x405418 1 0.02
0x405420 2 0.03
0x405428 2 0.03
0x405430 2 0.03
0x405438 2 0.03
0x405440 2 0.03
0x405520 2 0.03
0x405528 2 0.03
0x405530 2 0.03
0x405538 2 0.03
0x405540 2 0.03
0x4055d0 3 0.05
0x4055d8 3 0.05
0x4055e0 3 0.05
0x4055f0 3 0.05
0x4055f8 3 0.05
0x405600 3 0.05
0x405608 3 0.05
0x405610 3 0.05
0x405618 3 0.05
0x405640 1 0.02
0x405648 1 0.02
0x405650 1 0.02
0x405658 1 0.02
0x405660 1 0.02
sim_num_insn_by_pc.end_dist

ld_text_base             0x00400000 # program text (code) segment base
ld_text_size                  22432 # program text (code) size in bytes
ld_data_base             0x10000000 # program initialized data segment base
ld_data_size                   4096 # program init'ed `.data' and uninit'ed `.bss' size in bytes
ld_stack_base            0x7fffc000 # program stack segment base (highest address in stack)
ld_stack_size                 16384 # program initial stack size
ld_prog_entry            0x00400140 # program entry point (initial PC)
ld_environ_base          0x7fff8000 # program environment base address address
ld_target_big_endian              0 # target executable endian-ness, non-zero if big endian
mem.page_count                   12 # total number of pages allocated
mem.page_mem                    48k # total size of memory pages allocated
mem.ptab_misses                  12 # total first level page table misses
mem.ptab_accesses            174076 # total page table accesses
mem.ptab_miss_rate           0.0001 # first level page table miss rate

+--------------------------------------------------------------+
| effective code range:         [0, fffffff8]                  |
| effective bpred count:        0                              |
| effective sim cycles:         0                              |
| effective bpred misses:       0                              |
| effective icache misses:      0                              |
+--------------------------------------------------------------+

